43 397
1 5 6 8 9 16 19 20 21 23 25 32 33 37 39 40
0 2 5 6 10 16 21 23 24 28 30 31 33 37 40
1 3 4 6 7 8 11 15 18 19 22 24 26 27 28 31 33 38 39 40
2 4 5 6 7 10 11 13 14 17 18 21 23 24 29 30 31 32 34 36 37 39 41 42
2 3 6 7 8 9 12 14 16 17 20 25 32 34 35 37 38 39
0 1 3 16 17 19 21 28 29 33 34 36 39 40 42
0 1 2 3 4 9 11 12 13 14 15 19 25 30 31 32 33 35 36 37 38 41
2 3 4 8 13 20 21 25 28 30 33 36 38 40 41
0 2 4 7 11 12 13 16 17 18 20 21 27 28 32 33 36 37 38 39 40
0 4 6 10 12 16 20 25 26 29 31 32 34 35 36 37 39 41 42
1 3 9 15 16 17 18 22 26 28 32 33 34 35 37 38 39 42
2 3 6 8 14 16 22 23 24 25 29 34 36 39 41
4 6 8 9 14 15 18 20 22 23 25 26 28 29 31 40 42
3 6 7 8 17 18 20 22 24 26 27 28 29 34 35 37 39 40
3 4 6 11 12 18 20 22 25 26 28 30 31 33 35 37 40 42
2 6 10 12 18 19 21 22 25 29 30 31 32 33 34 37 39
0 1 4 5 8 9 10 11 20 21 26 28 31 33 34 38 39 41
3 4 5 8 10 13 18 21 23 26 27 28 29 34 37 39 40
2 3 8 10 12 13 14 15 17 24 25 27 28 30 34 37 41
0 2 5 6 15 21 23 24 31 32 37 38 39 40 42
0 4 7 8 9 12 13 14 16 23 30 32 35 36 37 40
0 1 3 5 7 8 15 16 17 19 22 23 24 27 29 31 32 34 39 40 41
2 10 11 12 13 14 15 21 23 25 27 31 32 35 38 39 40 41
0 1 3 11 12 17 19 20 21 22 24 27 29 30 32 33 36 37 38 39 40 41
1 2 3 11 13 18 19 21 23 25 26 31 32 34 36 37 38 41
0 4 6 7 9 11 12 14 15 18 22 24 28 30 32 33 37 39 40 41
2 9 10 12 13 14 16 17 24 27 32 34 35 36 38 40
2 8 13 17 18 21 22 23 26 29 32 33 35 38 39 40 41 42
1 2 5 7 8 10 12 13 14 16 17 18 25 31 35 38
3 5 9 11 12 13 15 17 21 23 27 32 34 39 42
1 3 6 7 14 15 18 20 23 25 33 36 37 38 39
1 2 3 6 9 12 14 15 16 19 21 22 24 28 32 33 37 39 40 41
0 3 4 6 8 9 10 15 19 20 21 22 23 24 25 26 27 29 31 33 34 38 41
0 1 2 5 6 7 8 10 14 15 16 23 25 27 30 31 32 34 35 39 40
3 4 5 9 10 11 13 15 16 17 18 21 24 26 29 32 33 36 38 39 41 42
4 6 9 10 13 14 20 22 26 27 28 33 37 38 39 40 41 42
3 5 6 7 8 9 11 20 23 24 26 30 34 37 38 42
0 1 3 4 6 8 9 10 13 14 15 17 18 19 20 23 24 25 30 31 35 36 38 40
2 4 6 7 8 10 16 19 22 23 24 26 27 28 30 32 34 35 36 37 42
0 2 3 4 5 8 9 10 11 13 15 16 17 19 21 22 23 25 27 29 30 31 33 34 35 42
0 1 2 5 7 8 12 13 14 17 19 20 21 22 23 25 26 27 31 33 35 37
3 6 7 9 11 16 18 21 22 23 24 25 27 31 32 34 35
3 5 9 10 12 14 19 27 29 34 35 36 38 39
